language ESSENCE' 1.0

letting design_FunctionND be
        [[0, 0, 0, 0, 0, 0, 0, 0, 0, 0, 0, 0, 0, 0, 0, 0, 0, 0, 0, 0, 0, 0, 0, 0, 0, 0, 0, 0, 0, 0; int(1..30)],
         [0, 0, 0, 0, 0, 0, 0, 0, 0, 0, 0, 0, 0, 0, 0, 0, 0, 0, 0, 0, 0, 0, 0, 0, 0, 0, 0, 0, 0, 0; int(1..30)],
         [40, 40, 33, 33, 33, 33, 22, 15, 15, 15, 15, 13, 13, 13, 13, 13, 13, 12, 12, 12, 12, 10, 10, 10, 10, 10, 10,
          10, 9, 9;
              int(1..30)];
             int(1..3)]
$ Visualisation for design_FunctionND
$  0  0  0  0  0  0  0  0  0  0  0  0  0  0  0  0  0  0  0  0  0  0  0  0  0  0  0  0  0  0
$  0  0  0  0  0  0  0  0  0  0  0  0  0  0  0  0  0  0  0  0  0  0  0  0  0  0  0  0  0  0
$ 40 40 33 33 33 33 22 15 15 15 15 13 13 13 13 13 13 12 12 12 12 10 10 10 10 10 10 10  9  9

letting printings_Function1D be [0, 0, 7; int(1..3)]
